instances/p2/p2_6_13-3.dzn
Alphabet = {A,C,G,T};
ns = 6;
nc = 13;
neighbours = [| I(A),I(T),Null,Null,Null,Null,Null,Null,Null,Null,Null,Null,Null | I(G),I(T),I(G),Null,Null,Null,Null,Null,Null,Null,Null,Null,Null | I(G),I(G),I(T),I(C),I(T),I(A),I(A),I(C),I(T),I(C),I(G),Null,Null | I(T),I(G),I(T),I(C),I(T),I(C),I(C),I(C),I(A),I(G),I(T),I(C),Null | I(G),I(C),I(G),I(A),I(C),I(A),Null,Null,Null,Null,Null,Null,Null | I(G),I(A),I(G),I(G),I(A),I(A),I(T),I(G),I(G),I(T),I(C),I(T),I(G) |];
