instances/p2/p2_6_13-3.txt
{
	"num_strings": 6,
	"alphabet": "ACGT",
	"strings": [
		"AT",
		"GTG",
		"GGTCTAACTCG",
		"TGTCTCCCAGTC",
		"GCGACA",
		"GAGGAATGGTCTG"
	],
	"str_length":[2,3,11,12,6,13]
}